unsat
(:cnf-encoding-aux-vars   25
 :eliminated-applications 4
 :eliminated-vars         40
 :max-memory              18.27
 :memory                  18.17
 :nlsat-conflicts         9
 :nlsat-decisions         10
 :nlsat-propagations      35
 :num-allocs              42161
 :rlimit-count            26795
 :time                    0.01
 :total-time              0.01)
